results/res_prop_muc/res_Cimatti_mathsat_cores/QF_RDL/fischer3-mutex-1.smt.smt2.res
unsat
( c102
  c113
  c122
  c13
  c132
  c141
  c153
  c165
  c17
  c171
  c173
  c175
  c186
  c195
  c205
  c21
  c214
  c226
  c238
  c244
  c246
  c248
  c25
  c258
  c270
  c278
  c286
  c29
  c316
  c318
  c32
  c320
  c327
  c331
  c335
  c338
  c342
  c347
  c4
  c41
  c5
  c51
  c6
  c60
  c7
  c75
  c8
  c80
  c9
  c92
  c98
  c99 )
